DIMENSION :11
NODE_COORD_SECTION
1 -97.60918247752835 24.729495406672
2 82.23027095084171 13.731096729810659
3 -39.68700986376008 -42.19545328032615
4 -5.716022019907442 16.47652492275371
5 81.22137304550517 58.48031687817081
6 -19.452729727451867 -56.30113499337457
7 76.23099160824788 -86.7741933304663
8 -82.78599799257806 -66.07346655047539
9 44.08137738788136 -16.313935454060015
10 -10.096603741384797 93.92382463660465
11 -58.90036893245145 45.726038087641655
EOF
